Route #1: 2 62 28 22 61 21
Route #2: 15 37 20 60 36 47 5 45
Route #3: 30 48 29 27 52 4
Route #4: 34 46 8 35 19 54 13 57
Route #5: 7 53 14 59 11
Route #6: 39 31 10 38 58
Route #7: 9 25 55 18 50 32 44
Route #8: 3 24 49 23 56 41 42 64
Route #9: 6 33 1 43 63 16 51
Route #10: 17 40 12 26
Cost 826